c *********************************
c * Circuit generated by BenCGen
c *
c * CarrySelectAdder_35_35_35_InOut_G4T
c *
c * Ports with 1 gate(s): 58
c * Ports with 2 gate(s): 464
c * Ports with 3 gate(s): 2
c * Ports with 4 gate(s): 14
c * Total gates: 538
c *********************************
p cnf 608 1718
1 108 0
-1 -108 0
1 -107 0
108 -107 0
-1 -108 107 0
107 125 0
-107 -125 0
1 36 -111 0
-1 36 111 0
1 -36 111 0
-1 -36 -111 0
111 107 -71 0
-111 107 71 0
111 -107 71 0
-111 -107 -71 0
107 -112 0
111 -112 0
-107 -111 112 0
36 -113 0
1 -113 0
-36 -1 113 0
-112 110 0
-113 110 0
112 113 -110 0
2 37 -115 0
-2 37 115 0
2 -37 115 0
-2 -37 -115 0
115 110 -72 0
-115 110 72 0
115 -110 72 0
-115 -110 -72 0
110 -116 0
115 -116 0
-110 -115 116 0
37 -117 0
2 -117 0
-37 -2 117 0
-116 114 0
-117 114 0
116 117 -114 0
3 38 -119 0
-3 38 119 0
3 -38 119 0
-3 -38 -119 0
119 114 -73 0
-119 114 73 0
119 -114 73 0
-119 -114 -73 0
114 -120 0
119 -120 0
-114 -119 120 0
38 -121 0
3 -121 0
-38 -3 121 0
-120 118 0
-121 118 0
120 121 -118 0
4 39 -122 0
-4 39 122 0
4 -39 122 0
-4 -39 -122 0
122 118 -74 0
-122 118 74 0
122 -118 74 0
-122 -118 -74 0
118 -123 0
122 -123 0
-118 -122 123 0
39 -124 0
4 -124 0
-39 -4 124 0
-123 109 0
-124 109 0
123 124 -109 0
5 40 -136 0
-5 40 136 0
5 -40 136 0
-5 -40 -136 0
136 107 -126 0
-136 107 126 0
136 -107 126 0
-136 -107 -126 0
107 -137 0
136 -137 0
-107 -136 137 0
40 -138 0
5 -138 0
-40 -5 138 0
-137 135 0
-138 135 0
137 138 -135 0
6 41 -140 0
-6 41 140 0
6 -41 140 0
-6 -41 -140 0
140 135 -127 0
-140 135 127 0
140 -135 127 0
-140 -135 -127 0
135 -141 0
140 -141 0
-135 -140 141 0
41 -142 0
6 -142 0
-41 -6 142 0
-141 139 0
-142 139 0
141 142 -139 0
7 42 -144 0
-7 42 144 0
7 -42 144 0
-7 -42 -144 0
144 139 -128 0
-144 139 128 0
144 -139 128 0
-144 -139 -128 0
139 -145 0
144 -145 0
-139 -144 145 0
42 -146 0
7 -146 0
-42 -7 146 0
-145 143 0
-146 143 0
145 146 -143 0
8 43 -147 0
-8 43 147 0
8 -43 147 0
-8 -43 -147 0
147 143 -129 0
-147 143 129 0
147 -143 129 0
-147 -143 -129 0
143 -148 0
147 -148 0
-143 -147 148 0
43 -149 0
8 -149 0
-43 -8 149 0
-148 134 0
-149 134 0
148 149 -134 0
136 -150 0
140 -150 0
144 -150 0
147 -150 0
-136 -140 -144 -147 150 0
149 -151 0
-149 151 0
5 40 -154 0
-5 40 154 0
5 -40 154 0
-5 -40 -154 0
154 125 -130 0
-154 125 130 0
154 -125 130 0
-154 -125 -130 0
125 -155 0
154 -155 0
-125 -154 155 0
40 -156 0
5 -156 0
-40 -5 156 0
-155 153 0
-156 153 0
155 156 -153 0
6 41 -158 0
-6 41 158 0
6 -41 158 0
-6 -41 -158 0
158 153 -131 0
-158 153 131 0
158 -153 131 0
-158 -153 -131 0
153 -159 0
158 -159 0
-153 -158 159 0
41 -160 0
6 -160 0
-41 -6 160 0
-159 157 0
-160 157 0
159 160 -157 0
7 42 -162 0
-7 42 162 0
7 -42 162 0
-7 -42 -162 0
162 157 -132 0
-162 157 132 0
162 -157 132 0
-162 -157 -132 0
157 -163 0
162 -163 0
-157 -162 163 0
42 -164 0
7 -164 0
-42 -7 164 0
-163 161 0
-164 161 0
163 164 -161 0
8 43 -165 0
-8 43 165 0
8 -43 165 0
-8 -43 -165 0
165 161 -133 0
-165 161 133 0
165 -161 133 0
-165 -161 -133 0
161 -166 0
165 -166 0
-161 -165 166 0
43 -167 0
8 -167 0
-43 -8 167 0
-166 152 0
-167 152 0
166 167 -152 0
154 -168 0
158 -168 0
162 -168 0
165 -168 0
-154 -158 -162 -165 168 0
167 -169 0
-167 169 0
9 44 -198 0
-9 44 198 0
9 -44 198 0
-9 -44 -198 0
198 107 -188 0
-198 107 188 0
198 -107 188 0
-198 -107 -188 0
107 -199 0
198 -199 0
-107 -198 199 0
44 -200 0
9 -200 0
-44 -9 200 0
-199 197 0
-200 197 0
199 200 -197 0
10 45 -202 0
-10 45 202 0
10 -45 202 0
-10 -45 -202 0
202 197 -189 0
-202 197 189 0
202 -197 189 0
-202 -197 -189 0
197 -203 0
202 -203 0
-197 -202 203 0
45 -204 0
10 -204 0
-45 -10 204 0
-203 201 0
-204 201 0
203 204 -201 0
11 46 -206 0
-11 46 206 0
11 -46 206 0
-11 -46 -206 0
206 201 -190 0
-206 201 190 0
206 -201 190 0
-206 -201 -190 0
201 -207 0
206 -207 0
-201 -206 207 0
46 -208 0
11 -208 0
-46 -11 208 0
-207 205 0
-208 205 0
207 208 -205 0
12 47 -209 0
-12 47 209 0
12 -47 209 0
-12 -47 -209 0
209 205 -191 0
-209 205 191 0
209 -205 191 0
-209 -205 -191 0
205 -210 0
209 -210 0
-205 -209 210 0
47 -211 0
12 -211 0
-47 -12 211 0
-210 196 0
-211 196 0
210 211 -196 0
198 -212 0
202 -212 0
206 -212 0
209 -212 0
-198 -202 -206 -209 212 0
211 -213 0
-211 213 0
9 44 -216 0
-9 44 216 0
9 -44 216 0
-9 -44 -216 0
216 125 -192 0
-216 125 192 0
216 -125 192 0
-216 -125 -192 0
125 -217 0
216 -217 0
-125 -216 217 0
44 -218 0
9 -218 0
-44 -9 218 0
-217 215 0
-218 215 0
217 218 -215 0
10 45 -220 0
-10 45 220 0
10 -45 220 0
-10 -45 -220 0
220 215 -193 0
-220 215 193 0
220 -215 193 0
-220 -215 -193 0
215 -221 0
220 -221 0
-215 -220 221 0
45 -222 0
10 -222 0
-45 -10 222 0
-221 219 0
-222 219 0
221 222 -219 0
11 46 -224 0
-11 46 224 0
11 -46 224 0
-11 -46 -224 0
224 219 -194 0
-224 219 194 0
224 -219 194 0
-224 -219 -194 0
219 -225 0
224 -225 0
-219 -224 225 0
46 -226 0
11 -226 0
-46 -11 226 0
-225 223 0
-226 223 0
225 226 -223 0
12 47 -227 0
-12 47 227 0
12 -47 227 0
-12 -47 -227 0
227 223 -195 0
-227 223 195 0
227 -223 195 0
-227 -223 -195 0
223 -228 0
227 -228 0
-223 -227 228 0
47 -229 0
12 -229 0
-47 -12 229 0
-228 214 0
-229 214 0
228 229 -214 0
216 -230 0
220 -230 0
224 -230 0
227 -230 0
-216 -220 -224 -227 230 0
229 -231 0
-229 231 0
13 48 -260 0
-13 48 260 0
13 -48 260 0
-13 -48 -260 0
260 107 -250 0
-260 107 250 0
260 -107 250 0
-260 -107 -250 0
107 -261 0
260 -261 0
-107 -260 261 0
48 -262 0
13 -262 0
-48 -13 262 0
-261 259 0
-262 259 0
261 262 -259 0
14 49 -264 0
-14 49 264 0
14 -49 264 0
-14 -49 -264 0
264 259 -251 0
-264 259 251 0
264 -259 251 0
-264 -259 -251 0
259 -265 0
264 -265 0
-259 -264 265 0
49 -266 0
14 -266 0
-49 -14 266 0
-265 263 0
-266 263 0
265 266 -263 0
15 50 -268 0
-15 50 268 0
15 -50 268 0
-15 -50 -268 0
268 263 -252 0
-268 263 252 0
268 -263 252 0
-268 -263 -252 0
263 -269 0
268 -269 0
-263 -268 269 0
50 -270 0
15 -270 0
-50 -15 270 0
-269 267 0
-270 267 0
269 270 -267 0
16 51 -271 0
-16 51 271 0
16 -51 271 0
-16 -51 -271 0
271 267 -253 0
-271 267 253 0
271 -267 253 0
-271 -267 -253 0
267 -272 0
271 -272 0
-267 -271 272 0
51 -273 0
16 -273 0
-51 -16 273 0
-272 258 0
-273 258 0
272 273 -258 0
260 -274 0
264 -274 0
268 -274 0
271 -274 0
-260 -264 -268 -271 274 0
273 -275 0
-273 275 0
13 48 -278 0
-13 48 278 0
13 -48 278 0
-13 -48 -278 0
278 125 -254 0
-278 125 254 0
278 -125 254 0
-278 -125 -254 0
125 -279 0
278 -279 0
-125 -278 279 0
48 -280 0
13 -280 0
-48 -13 280 0
-279 277 0
-280 277 0
279 280 -277 0
14 49 -282 0
-14 49 282 0
14 -49 282 0
-14 -49 -282 0
282 277 -255 0
-282 277 255 0
282 -277 255 0
-282 -277 -255 0
277 -283 0
282 -283 0
-277 -282 283 0
49 -284 0
14 -284 0
-49 -14 284 0
-283 281 0
-284 281 0
283 284 -281 0
15 50 -286 0
-15 50 286 0
15 -50 286 0
-15 -50 -286 0
286 281 -256 0
-286 281 256 0
286 -281 256 0
-286 -281 -256 0
281 -287 0
286 -287 0
-281 -286 287 0
50 -288 0
15 -288 0
-50 -15 288 0
-287 285 0
-288 285 0
287 288 -285 0
16 51 -289 0
-16 51 289 0
16 -51 289 0
-16 -51 -289 0
289 285 -257 0
-289 285 257 0
289 -285 257 0
-289 -285 -257 0
285 -290 0
289 -290 0
-285 -289 290 0
51 -291 0
16 -291 0
-51 -16 291 0
-290 276 0
-291 276 0
290 291 -276 0
278 -292 0
282 -292 0
286 -292 0
289 -292 0
-278 -282 -286 -289 292 0
291 -293 0
-291 293 0
17 52 -322 0
-17 52 322 0
17 -52 322 0
-17 -52 -322 0
322 107 -312 0
-322 107 312 0
322 -107 312 0
-322 -107 -312 0
107 -323 0
322 -323 0
-107 -322 323 0
52 -324 0
17 -324 0
-52 -17 324 0
-323 321 0
-324 321 0
323 324 -321 0
18 53 -326 0
-18 53 326 0
18 -53 326 0
-18 -53 -326 0
326 321 -313 0
-326 321 313 0
326 -321 313 0
-326 -321 -313 0
321 -327 0
326 -327 0
-321 -326 327 0
53 -328 0
18 -328 0
-53 -18 328 0
-327 325 0
-328 325 0
327 328 -325 0
19 54 -330 0
-19 54 330 0
19 -54 330 0
-19 -54 -330 0
330 325 -314 0
-330 325 314 0
330 -325 314 0
-330 -325 -314 0
325 -331 0
330 -331 0
-325 -330 331 0
54 -332 0
19 -332 0
-54 -19 332 0
-331 329 0
-332 329 0
331 332 -329 0
20 55 -333 0
-20 55 333 0
20 -55 333 0
-20 -55 -333 0
333 329 -315 0
-333 329 315 0
333 -329 315 0
-333 -329 -315 0
329 -334 0
333 -334 0
-329 -333 334 0
55 -335 0
20 -335 0
-55 -20 335 0
-334 320 0
-335 320 0
334 335 -320 0
322 -336 0
326 -336 0
330 -336 0
333 -336 0
-322 -326 -330 -333 336 0
335 -337 0
-335 337 0
17 52 -340 0
-17 52 340 0
17 -52 340 0
-17 -52 -340 0
340 125 -316 0
-340 125 316 0
340 -125 316 0
-340 -125 -316 0
125 -341 0
340 -341 0
-125 -340 341 0
52 -342 0
17 -342 0
-52 -17 342 0
-341 339 0
-342 339 0
341 342 -339 0
18 53 -344 0
-18 53 344 0
18 -53 344 0
-18 -53 -344 0
344 339 -317 0
-344 339 317 0
344 -339 317 0
-344 -339 -317 0
339 -345 0
344 -345 0
-339 -344 345 0
53 -346 0
18 -346 0
-53 -18 346 0
-345 343 0
-346 343 0
345 346 -343 0
19 54 -348 0
-19 54 348 0
19 -54 348 0
-19 -54 -348 0
348 343 -318 0
-348 343 318 0
348 -343 318 0
-348 -343 -318 0
343 -349 0
348 -349 0
-343 -348 349 0
54 -350 0
19 -350 0
-54 -19 350 0
-349 347 0
-350 347 0
349 350 -347 0
20 55 -351 0
-20 55 351 0
20 -55 351 0
-20 -55 -351 0
351 347 -319 0
-351 347 319 0
351 -347 319 0
-351 -347 -319 0
347 -352 0
351 -352 0
-347 -351 352 0
55 -353 0
20 -353 0
-55 -20 353 0
-352 338 0
-353 338 0
352 353 -338 0
340 -354 0
344 -354 0
348 -354 0
351 -354 0
-340 -344 -348 -351 354 0
353 -355 0
-353 355 0
21 56 -384 0
-21 56 384 0
21 -56 384 0
-21 -56 -384 0
384 107 -374 0
-384 107 374 0
384 -107 374 0
-384 -107 -374 0
107 -385 0
384 -385 0
-107 -384 385 0
56 -386 0
21 -386 0
-56 -21 386 0
-385 383 0
-386 383 0
385 386 -383 0
22 57 -388 0
-22 57 388 0
22 -57 388 0
-22 -57 -388 0
388 383 -375 0
-388 383 375 0
388 -383 375 0
-388 -383 -375 0
383 -389 0
388 -389 0
-383 -388 389 0
57 -390 0
22 -390 0
-57 -22 390 0
-389 387 0
-390 387 0
389 390 -387 0
23 58 -392 0
-23 58 392 0
23 -58 392 0
-23 -58 -392 0
392 387 -376 0
-392 387 376 0
392 -387 376 0
-392 -387 -376 0
387 -393 0
392 -393 0
-387 -392 393 0
58 -394 0
23 -394 0
-58 -23 394 0
-393 391 0
-394 391 0
393 394 -391 0
24 59 -395 0
-24 59 395 0
24 -59 395 0
-24 -59 -395 0
395 391 -377 0
-395 391 377 0
395 -391 377 0
-395 -391 -377 0
391 -396 0
395 -396 0
-391 -395 396 0
59 -397 0
24 -397 0
-59 -24 397 0
-396 382 0
-397 382 0
396 397 -382 0
384 -398 0
388 -398 0
392 -398 0
395 -398 0
-384 -388 -392 -395 398 0
397 -399 0
-397 399 0
21 56 -402 0
-21 56 402 0
21 -56 402 0
-21 -56 -402 0
402 125 -378 0
-402 125 378 0
402 -125 378 0
-402 -125 -378 0
125 -403 0
402 -403 0
-125 -402 403 0
56 -404 0
21 -404 0
-56 -21 404 0
-403 401 0
-404 401 0
403 404 -401 0
22 57 -406 0
-22 57 406 0
22 -57 406 0
-22 -57 -406 0
406 401 -379 0
-406 401 379 0
406 -401 379 0
-406 -401 -379 0
401 -407 0
406 -407 0
-401 -406 407 0
57 -408 0
22 -408 0
-57 -22 408 0
-407 405 0
-408 405 0
407 408 -405 0
23 58 -410 0
-23 58 410 0
23 -58 410 0
-23 -58 -410 0
410 405 -380 0
-410 405 380 0
410 -405 380 0
-410 -405 -380 0
405 -411 0
410 -411 0
-405 -410 411 0
58 -412 0
23 -412 0
-58 -23 412 0
-411 409 0
-412 409 0
411 412 -409 0
24 59 -413 0
-24 59 413 0
24 -59 413 0
-24 -59 -413 0
413 409 -381 0
-413 409 381 0
413 -409 381 0
-413 -409 -381 0
409 -414 0
413 -414 0
-409 -413 414 0
59 -415 0
24 -415 0
-59 -24 415 0
-414 400 0
-415 400 0
414 415 -400 0
402 -416 0
406 -416 0
410 -416 0
413 -416 0
-402 -406 -410 -413 416 0
415 -417 0
-415 417 0
25 60 -446 0
-25 60 446 0
25 -60 446 0
-25 -60 -446 0
446 107 -436 0
-446 107 436 0
446 -107 436 0
-446 -107 -436 0
107 -447 0
446 -447 0
-107 -446 447 0
60 -448 0
25 -448 0
-60 -25 448 0
-447 445 0
-448 445 0
447 448 -445 0
26 61 -450 0
-26 61 450 0
26 -61 450 0
-26 -61 -450 0
450 445 -437 0
-450 445 437 0
450 -445 437 0
-450 -445 -437 0
445 -451 0
450 -451 0
-445 -450 451 0
61 -452 0
26 -452 0
-61 -26 452 0
-451 449 0
-452 449 0
451 452 -449 0
27 62 -454 0
-27 62 454 0
27 -62 454 0
-27 -62 -454 0
454 449 -438 0
-454 449 438 0
454 -449 438 0
-454 -449 -438 0
449 -455 0
454 -455 0
-449 -454 455 0
62 -456 0
27 -456 0
-62 -27 456 0
-455 453 0
-456 453 0
455 456 -453 0
28 63 -457 0
-28 63 457 0
28 -63 457 0
-28 -63 -457 0
457 453 -439 0
-457 453 439 0
457 -453 439 0
-457 -453 -439 0
453 -458 0
457 -458 0
-453 -457 458 0
63 -459 0
28 -459 0
-63 -28 459 0
-458 444 0
-459 444 0
458 459 -444 0
446 -460 0
450 -460 0
454 -460 0
457 -460 0
-446 -450 -454 -457 460 0
459 -461 0
-459 461 0
25 60 -464 0
-25 60 464 0
25 -60 464 0
-25 -60 -464 0
464 125 -440 0
-464 125 440 0
464 -125 440 0
-464 -125 -440 0
125 -465 0
464 -465 0
-125 -464 465 0
60 -466 0
25 -466 0
-60 -25 466 0
-465 463 0
-466 463 0
465 466 -463 0
26 61 -468 0
-26 61 468 0
26 -61 468 0
-26 -61 -468 0
468 463 -441 0
-468 463 441 0
468 -463 441 0
-468 -463 -441 0
463 -469 0
468 -469 0
-463 -468 469 0
61 -470 0
26 -470 0
-61 -26 470 0
-469 467 0
-470 467 0
469 470 -467 0
27 62 -472 0
-27 62 472 0
27 -62 472 0
-27 -62 -472 0
472 467 -442 0
-472 467 442 0
472 -467 442 0
-472 -467 -442 0
467 -473 0
472 -473 0
-467 -472 473 0
62 -474 0
27 -474 0
-62 -27 474 0
-473 471 0
-474 471 0
473 474 -471 0
28 63 -475 0
-28 63 475 0
28 -63 475 0
-28 -63 -475 0
475 471 -443 0
-475 471 443 0
475 -471 443 0
-475 -471 -443 0
471 -476 0
475 -476 0
-471 -475 476 0
63 -477 0
28 -477 0
-63 -28 477 0
-476 462 0
-477 462 0
476 477 -462 0
464 -478 0
468 -478 0
472 -478 0
475 -478 0
-464 -468 -472 -475 478 0
477 -479 0
-477 479 0
29 64 -508 0
-29 64 508 0
29 -64 508 0
-29 -64 -508 0
508 107 -498 0
-508 107 498 0
508 -107 498 0
-508 -107 -498 0
107 -509 0
508 -509 0
-107 -508 509 0
64 -510 0
29 -510 0
-64 -29 510 0
-509 507 0
-510 507 0
509 510 -507 0
30 65 -512 0
-30 65 512 0
30 -65 512 0
-30 -65 -512 0
512 507 -499 0
-512 507 499 0
512 -507 499 0
-512 -507 -499 0
507 -513 0
512 -513 0
-507 -512 513 0
65 -514 0
30 -514 0
-65 -30 514 0
-513 511 0
-514 511 0
513 514 -511 0
31 66 -516 0
-31 66 516 0
31 -66 516 0
-31 -66 -516 0
516 511 -500 0
-516 511 500 0
516 -511 500 0
-516 -511 -500 0
511 -517 0
516 -517 0
-511 -516 517 0
66 -518 0
31 -518 0
-66 -31 518 0
-517 515 0
-518 515 0
517 518 -515 0
32 67 -519 0
-32 67 519 0
32 -67 519 0
-32 -67 -519 0
519 515 -501 0
-519 515 501 0
519 -515 501 0
-519 -515 -501 0
515 -520 0
519 -520 0
-515 -519 520 0
67 -521 0
32 -521 0
-67 -32 521 0
-520 506 0
-521 506 0
520 521 -506 0
508 -522 0
512 -522 0
516 -522 0
519 -522 0
-508 -512 -516 -519 522 0
521 -523 0
-521 523 0
29 64 -526 0
-29 64 526 0
29 -64 526 0
-29 -64 -526 0
526 125 -502 0
-526 125 502 0
526 -125 502 0
-526 -125 -502 0
125 -527 0
526 -527 0
-125 -526 527 0
64 -528 0
29 -528 0
-64 -29 528 0
-527 525 0
-528 525 0
527 528 -525 0
30 65 -530 0
-30 65 530 0
30 -65 530 0
-30 -65 -530 0
530 525 -503 0
-530 525 503 0
530 -525 503 0
-530 -525 -503 0
525 -531 0
530 -531 0
-525 -530 531 0
65 -532 0
30 -532 0
-65 -30 532 0
-531 529 0
-532 529 0
531 532 -529 0
31 66 -534 0
-31 66 534 0
31 -66 534 0
-31 -66 -534 0
534 529 -504 0
-534 529 504 0
534 -529 504 0
-534 -529 -504 0
529 -535 0
534 -535 0
-529 -534 535 0
66 -536 0
31 -536 0
-66 -31 536 0
-535 533 0
-536 533 0
535 536 -533 0
32 67 -537 0
-32 67 537 0
32 -67 537 0
-32 -67 -537 0
537 533 -505 0
-537 533 505 0
537 -533 505 0
-537 -533 -505 0
533 -538 0
537 -538 0
-533 -537 538 0
67 -539 0
32 -539 0
-67 -32 539 0
-538 524 0
-539 524 0
538 539 -524 0
526 -540 0
530 -540 0
534 -540 0
537 -540 0
-526 -530 -534 -537 540 0
539 -541 0
-539 541 0
33 68 -568 0
-33 68 568 0
33 -68 568 0
-33 -68 -568 0
568 107 -560 0
-568 107 560 0
568 -107 560 0
-568 -107 -560 0
107 -569 0
568 -569 0
-107 -568 569 0
68 -570 0
33 -570 0
-68 -33 570 0
-569 567 0
-570 567 0
569 570 -567 0
34 69 -572 0
-34 69 572 0
34 -69 572 0
-34 -69 -572 0
572 567 -561 0
-572 567 561 0
572 -567 561 0
-572 -567 -561 0
567 -573 0
572 -573 0
-567 -572 573 0
69 -574 0
34 -574 0
-69 -34 574 0
-573 571 0
-574 571 0
573 574 -571 0
35 70 -575 0
-35 70 575 0
35 -70 575 0
-35 -70 -575 0
575 571 -562 0
-575 571 562 0
575 -571 562 0
-575 -571 -562 0
571 -576 0
575 -576 0
-571 -575 576 0
70 -577 0
35 -577 0
-70 -35 577 0
-576 566 0
-577 566 0
576 577 -566 0
568 -578 0
572 -578 0
575 -578 0
-568 -572 -575 578 0
577 -579 0
-577 579 0
33 68 -582 0
-33 68 582 0
33 -68 582 0
-33 -68 -582 0
582 125 -563 0
-582 125 563 0
582 -125 563 0
-582 -125 -563 0
125 -583 0
582 -583 0
-125 -582 583 0
68 -584 0
33 -584 0
-68 -33 584 0
-583 581 0
-584 581 0
583 584 -581 0
34 69 -586 0
-34 69 586 0
34 -69 586 0
-34 -69 -586 0
586 581 -564 0
-586 581 564 0
586 -581 564 0
-586 -581 -564 0
581 -587 0
586 -587 0
-581 -586 587 0
69 -588 0
34 -588 0
-69 -34 588 0
-587 585 0
-588 585 0
587 588 -585 0
35 70 -589 0
-35 70 589 0
35 -70 589 0
-35 -70 -589 0
589 585 -565 0
-589 585 565 0
589 -585 565 0
-589 -585 -565 0
585 -590 0
589 -590 0
-585 -589 590 0
70 -591 0
35 -591 0
-70 -35 591 0
-590 580 0
-591 580 0
590 591 -580 0
582 -592 0
586 -592 0
589 -592 0
-582 -586 -589 592 0
591 -593 0
-591 593 0
109 171 0
-109 -171 0
171 -172 0
126 -172 0
-171 -126 172 0
109 -173 0
130 -173 0
-109 -130 173 0
-172 75 0
-173 75 0
172 173 -75 0
109 174 0
-109 -174 0
174 -175 0
127 -175 0
-174 -127 175 0
109 -176 0
131 -176 0
-109 -131 176 0
-175 76 0
-176 76 0
175 176 -76 0
109 177 0
-109 -177 0
177 -178 0
128 -178 0
-177 -128 178 0
109 -179 0
132 -179 0
-109 -132 179 0
-178 77 0
-179 77 0
178 179 -77 0
109 180 0
-109 -180 0
180 -181 0
129 -181 0
-180 -129 181 0
109 -182 0
133 -182 0
-109 -133 182 0
-181 78 0
-182 78 0
181 182 -78 0
109 183 0
-109 -183 0
183 -184 0
134 -184 0
-183 -134 184 0
109 -185 0
152 -185 0
-109 -152 185 0
-184 170 0
-185 170 0
184 185 -170 0
109 -186 0
168 -186 0
-109 -168 186 0
-186 187 0
-170 187 0
186 170 -187 0
187 233 0
-187 -233 0
233 -234 0
188 -234 0
-233 -188 234 0
187 -235 0
192 -235 0
-187 -192 235 0
-234 79 0
-235 79 0
234 235 -79 0
187 236 0
-187 -236 0
236 -237 0
189 -237 0
-236 -189 237 0
187 -238 0
193 -238 0
-187 -193 238 0
-237 80 0
-238 80 0
237 238 -80 0
187 239 0
-187 -239 0
239 -240 0
190 -240 0
-239 -190 240 0
187 -241 0
194 -241 0
-187 -194 241 0
-240 81 0
-241 81 0
240 241 -81 0
187 242 0
-187 -242 0
242 -243 0
191 -243 0
-242 -191 243 0
187 -244 0
195 -244 0
-187 -195 244 0
-243 82 0
-244 82 0
243 244 -82 0
187 245 0
-187 -245 0
245 -246 0
196 -246 0
-245 -196 246 0
187 -247 0
214 -247 0
-187 -214 247 0
-246 232 0
-247 232 0
246 247 -232 0
187 -248 0
230 -248 0
-187 -230 248 0
-248 249 0
-232 249 0
248 232 -249 0
249 295 0
-249 -295 0
295 -296 0
250 -296 0
-295 -250 296 0
249 -297 0
254 -297 0
-249 -254 297 0
-296 83 0
-297 83 0
296 297 -83 0
249 298 0
-249 -298 0
298 -299 0
251 -299 0
-298 -251 299 0
249 -300 0
255 -300 0
-249 -255 300 0
-299 84 0
-300 84 0
299 300 -84 0
249 301 0
-249 -301 0
301 -302 0
252 -302 0
-301 -252 302 0
249 -303 0
256 -303 0
-249 -256 303 0
-302 85 0
-303 85 0
302 303 -85 0
249 304 0
-249 -304 0
304 -305 0
253 -305 0
-304 -253 305 0
249 -306 0
257 -306 0
-249 -257 306 0
-305 86 0
-306 86 0
305 306 -86 0
249 307 0
-249 -307 0
307 -308 0
258 -308 0
-307 -258 308 0
249 -309 0
276 -309 0
-249 -276 309 0
-308 294 0
-309 294 0
308 309 -294 0
249 -310 0
292 -310 0
-249 -292 310 0
-310 311 0
-294 311 0
310 294 -311 0
311 357 0
-311 -357 0
357 -358 0
312 -358 0
-357 -312 358 0
311 -359 0
316 -359 0
-311 -316 359 0
-358 87 0
-359 87 0
358 359 -87 0
311 360 0
-311 -360 0
360 -361 0
313 -361 0
-360 -313 361 0
311 -362 0
317 -362 0
-311 -317 362 0
-361 88 0
-362 88 0
361 362 -88 0
311 363 0
-311 -363 0
363 -364 0
314 -364 0
-363 -314 364 0
311 -365 0
318 -365 0
-311 -318 365 0
-364 89 0
-365 89 0
364 365 -89 0
311 366 0
-311 -366 0
366 -367 0
315 -367 0
-366 -315 367 0
311 -368 0
319 -368 0
-311 -319 368 0
-367 90 0
-368 90 0
367 368 -90 0
311 369 0
-311 -369 0
369 -370 0
320 -370 0
-369 -320 370 0
311 -371 0
338 -371 0
-311 -338 371 0
-370 356 0
-371 356 0
370 371 -356 0
311 -372 0
354 -372 0
-311 -354 372 0
-372 373 0
-356 373 0
372 356 -373 0
373 419 0
-373 -419 0
419 -420 0
374 -420 0
-419 -374 420 0
373 -421 0
378 -421 0
-373 -378 421 0
-420 91 0
-421 91 0
420 421 -91 0
373 422 0
-373 -422 0
422 -423 0
375 -423 0
-422 -375 423 0
373 -424 0
379 -424 0
-373 -379 424 0
-423 92 0
-424 92 0
423 424 -92 0
373 425 0
-373 -425 0
425 -426 0
376 -426 0
-425 -376 426 0
373 -427 0
380 -427 0
-373 -380 427 0
-426 93 0
-427 93 0
426 427 -93 0
373 428 0
-373 -428 0
428 -429 0
377 -429 0
-428 -377 429 0
373 -430 0
381 -430 0
-373 -381 430 0
-429 94 0
-430 94 0
429 430 -94 0
373 431 0
-373 -431 0
431 -432 0
382 -432 0
-431 -382 432 0
373 -433 0
400 -433 0
-373 -400 433 0
-432 418 0
-433 418 0
432 433 -418 0
373 -434 0
416 -434 0
-373 -416 434 0
-434 435 0
-418 435 0
434 418 -435 0
435 481 0
-435 -481 0
481 -482 0
436 -482 0
-481 -436 482 0
435 -483 0
440 -483 0
-435 -440 483 0
-482 95 0
-483 95 0
482 483 -95 0
435 484 0
-435 -484 0
484 -485 0
437 -485 0
-484 -437 485 0
435 -486 0
441 -486 0
-435 -441 486 0
-485 96 0
-486 96 0
485 486 -96 0
435 487 0
-435 -487 0
487 -488 0
438 -488 0
-487 -438 488 0
435 -489 0
442 -489 0
-435 -442 489 0
-488 97 0
-489 97 0
488 489 -97 0
435 490 0
-435 -490 0
490 -491 0
439 -491 0
-490 -439 491 0
435 -492 0
443 -492 0
-435 -443 492 0
-491 98 0
-492 98 0
491 492 -98 0
435 493 0
-435 -493 0
493 -494 0
444 -494 0
-493 -444 494 0
435 -495 0
462 -495 0
-435 -462 495 0
-494 480 0
-495 480 0
494 495 -480 0
435 -496 0
478 -496 0
-435 -478 496 0
-496 497 0
-480 497 0
496 480 -497 0
497 543 0
-497 -543 0
543 -544 0
498 -544 0
-543 -498 544 0
497 -545 0
502 -545 0
-497 -502 545 0
-544 99 0
-545 99 0
544 545 -99 0
497 546 0
-497 -546 0
546 -547 0
499 -547 0
-546 -499 547 0
497 -548 0
503 -548 0
-497 -503 548 0
-547 100 0
-548 100 0
547 548 -100 0
497 549 0
-497 -549 0
549 -550 0
500 -550 0
-549 -500 550 0
497 -551 0
504 -551 0
-497 -504 551 0
-550 101 0
-551 101 0
550 551 -101 0
497 552 0
-497 -552 0
552 -553 0
501 -553 0
-552 -501 553 0
497 -554 0
505 -554 0
-497 -505 554 0
-553 102 0
-554 102 0
553 554 -102 0
497 555 0
-497 -555 0
555 -556 0
506 -556 0
-555 -506 556 0
497 -557 0
524 -557 0
-497 -524 557 0
-556 542 0
-557 542 0
556 557 -542 0
497 -558 0
540 -558 0
-497 -540 558 0
-558 559 0
-542 559 0
558 542 -559 0
559 595 0
-559 -595 0
595 -596 0
560 -596 0
-595 -560 596 0
559 -597 0
563 -597 0
-559 -563 597 0
-596 103 0
-597 103 0
596 597 -103 0
559 598 0
-559 -598 0
598 -599 0
561 -599 0
-598 -561 599 0
559 -600 0
564 -600 0
-559 -564 600 0
-599 104 0
-600 104 0
599 600 -104 0
559 601 0
-559 -601 0
601 -602 0
562 -602 0
-601 -562 602 0
559 -603 0
565 -603 0
-559 -565 603 0
-602 105 0
-603 105 0
602 603 -105 0
559 604 0
-559 -604 0
604 -605 0
566 -605 0
-604 -566 605 0
559 -606 0
580 -606 0
-559 -580 606 0
-605 594 0
-606 594 0
605 606 -594 0
559 -607 0
592 -607 0
-559 -592 607 0
-607 608 0
-594 608 0
607 594 -608 0
608 -106 0
-608 106 0
